============================[ Problem Statistics ]=============================|                                                                             ||  Number of variables:          4242                                         ||  Number of clauses:           10044                                         ||  Parse time:                   0.43 s                                       ||                                                                             |============================[ Search Statistics ]==============================| Conflicts |          ORIGINAL         |          LEARNT          | Progress ||           |    Vars  Clauses Literals |    Limit  Clauses Lit/Cl |          |===============================================================================|       100 |    1591     6249   689560 |     2291      100     53 | 62.501 % |===============================================================================restarts              : 3conflicts             : 246            (374 /sec)decisions             : 510            (0.00 % random) (776 /sec)propagations          : 11743          (17874 /sec)conflict literals     : 18494          (94.92 % deleted)CPU time              : 0.657 sSATISFIABLE